3 3 2
25 0 27 2 35 0 12 1 30 2 35 0 13 2 27 1 3 2 25 1 31 0 18 1 6 0 43 1 3 2 41 0 47 2 22 0 1 1 42 0 35 2 33 1 34 0 1 1 4 2 27 
25 0 34 1 15 2 48 0 19 2 7 1 5 0 36 1 17 2 40 1 21 0 17 2 46 1 28 2 24 0 20 1 40 2 9 1 14 2 6 0 16 2 26 1 44 2 24 0 24 1 31 
25 0 31 2 41 1 25 2 22 0 47 2 9 0 14 2 45 0 45 2 5 0 30 1 37 0 41 1 26 0 45 2 23 0 17 2 1 0 42 1 48 2 47 1 39 0 33 1 13 0 1 

-------------
